[[45, 53, 54, 63, 61, 62, 72, 81, 71, 80, 70, 69, 78, 77, 79, 88, 89, 90], [99, 98, 97, 96, 87, 86, 95, 94, 93, 92, 91, 82, 83], [84, 85, 76, 75, 73, 74, 64, 65, 66, 67, 68, 59], [58, 49, 56, 57, 55, 46, 47, 48, 39, 40, 38, 29, 37, 28, 19], [30, 31, 21, 24, 23, 22, 13, 20, 11, 10, 2, 12, 3], [4, 14, 5, 15, 6, 7, 8, 9, 18, 17, 16, 25], [26, 27, 35, 36, 44, 34, 43, 33, 32, 41, 42, 50, 51, 52, 60]]